=== 테스트 결과 요약 ===
데이터셋           : mona-lisa100K
사용 알고리즘      : MST
결과 파일          : output/mona-lisa100K_MST.tour
정답 일치 여부     : 일치함
걸린 시간          : 106571 ms
메모리 사용량      : 12628 KB
성능 상태          : 정상 실행됨

=== 비교 상세 로그 ===
헤더 차이 (라인 2)
GT   : COMMENT: Tour length 5757191
내꺼 : COMMENT : Tour length 8322299
TOUR_SECTION 비교 결과: 0 / 0 정확도: 0%
